words_hard_train/1440.qaiger
aag 37 13 0 1 24
2
4
8
10
20
22
30
32
36
44
46
50
54
75
6 3 4
12 8 11
14 9 10
16 13 15
18 7 16
24 21 23
26 20 22
28 25 27
34 30 33
38 35 37
40 29 38
42 18 40
48 44 46
52 48 50
56 53 54
58 42 57
60 2 5
62 31 32
64 61 63
66 45 47
68 66 51
70 69 55
72 64 71
74 58 72
i0 2 y1[1]
i1 1 x1[3]
i2 1 x1[6]
i3 2 y1[4]
i4 1 x1[5]
i5 2 y1[3]
i6 1 x1[4]
i7 2 y1[2]
i8 1 x1[2]
i9 2 y1[7]
i10 2 y1[6]
i11 1 x1[7]
i12 2 y1[5]
o0 bool[0]
c
simplified
  !=
    >> 2
      1 x1
    subtract
      or
        1
        2 y1
      1
