words_hard_train/1440.qaiger.qdimacs
p cnf 37 73
a 2 4 10 15 18 25 0
e 1 3 5 6 7 8 9 11 12 13 14 16 17 19 20 21 22 23 24 26 27 28 29 30 31 32 33 34 35 36 37 0
1 -2 3 0
-1 -3 0
2 -3 0
-4 5 6 0
4 -6 0
-5 -6 0
4 -5 7 0
-4 -7 0
5 -7 0
6 7 8 0
-6 -8 0
-7 -8 0
3 -8 9 0
-3 -9 0
8 -9 0
10 11 12 0
-10 -12 0
-11 -12 0
-10 -11 13 0
10 -13 0
11 -13 0
12 13 14 0
-12 -14 0
-13 -14 0
-15 16 17 0
15 -17 0
-16 -17 0
17 18 19 0
-17 -19 0
-18 -19 0
14 -19 20 0
-14 -20 0
19 -20 0
-9 -20 21 0
9 -21 0
20 -21 0
-22 -23 24 0
22 -24 0
23 -24 0
-24 -25 26 0
24 -26 0
25 -26 0
26 -27 28 0
-26 -28 0
27 -28 0
-21 28 29 0
21 -29 0
-28 -29 0
-1 2 30 0
1 -30 0
-2 -30 0
15 -16 31 0
-15 -31 0
16 -31 0
30 31 32 0
-30 -32 0
-31 -32 0
22 23 33 0
-22 -33 0
-23 -33 0
-33 25 34 0
33 -34 0
-25 -34 0
34 27 35 0
-34 -35 0
-27 -35 0
-32 35 36 0
32 -36 0
-35 -36 0
-29 -36 37 0
29 -37 0
36 -37 0
-37 0
